sat
(
  (define-fun C1_VM4 () Int
    0)
  (define-fun VM4Type () Int
    7)
  (define-fun C2_VM3 () Int
    0)
  (define-fun C4_VM3 () Int
    1)
  (define-fun C4_VM1 () Int
    0)
  (define-fun VM2Type () Int
    1)
  (define-fun C2_VM5 () Int
    1)
  (define-fun C3_VM3 () Int
    0)
  (define-fun C5_VM1 () Int
    0)
  (define-fun MemProv2 () Int
    1350)
  (define-fun C1_VM3 () Int
    0)
  (define-fun PriceProv2 () Int
    120)
  (define-fun MemProv1 () Int
    3150)
  (define-fun MemProv6 () Int
    1350)
  (define-fun C1_VM2 () Int
    0)
  (define-fun ProcProv6 () Int
    900)
  (define-fun VM3Type () Int
    24)
  (define-fun PriceProv1 () Int
    240)
  (define-fun C3_VM6 () Int
    0)
  (define-fun C3_VM1 () Int
    0)
  (define-fun MemProv3 () Int
    28350)
  (define-fun C1_VM5 () Int
    0)
  (define-fun VM1Type () Int
    7)
  (define-fun ProcProv5 () Int
    900)
  (define-fun VM6Type () Int
    1)
  (define-fun PriceProv4 () Int
    240)
  (define-fun PriceProv3 () Int
    1680)
  (define-fun MemProv5 () Int
    1350)
  (define-fun C5_VM4 () Int
    1)
  (define-fun C3_VM4 () Int
    1)
  (define-fun MemProv4 () Int
    3150)
  (define-fun C2_VM6 () Int
    1)
  (define-fun StorageProv2 () Int
    42000)
  (define-fun C5_VM5 () Int
    1)
  (define-fun ProcProv1 () Int
    1800)
  (define-fun StorageProv6 () Int
    42000)
  (define-fun C3_VM5 () Int
    0)
  (define-fun PriceProv5 () Int
    120)
  (define-fun C4_VM4 () Int
    0)
  (define-fun C4_VM6 () Int
    0)
  (define-fun ProcProv4 () Int
    1800)
  (define-fun C1_VM6 () Int
    0)
  (define-fun C2_VM4 () Int
    0)
  (define-fun StorageProv1 () Int
    69000)
  (define-fun StorageProv5 () Int
    42000)
  (define-fun C4_VM5 () Int
    0)
  (define-fun C2_VM1 () Int
    0)
  (define-fun StorageProv4 () Int
    69000)
  (define-fun C5_VM3 () Int
    0)
  (define-fun StorageProv3 () Int
    87000)
  (define-fun VM5Type () Int
    1)
  (define-fun C4_VM2 () Int
    0)
  (define-fun ProcProv2 () Int
    900)
  (define-fun PriceProv6 () Int
    120)
  (define-fun C5_VM2 () Int
    1)
  (define-fun ProcProv3 () Int
    3600)
  (define-fun C5_VM6 () Int
    1)
  (define-fun C2_VM2 () Int
    1)
  (define-fun C3_VM2 () Int
    0)
  (define-fun C1_VM1 () Int
    1)
)
(objectives
 ( 251)
 ((+ 0 PriceProv1 PriceProv2 PriceProv3 PriceProv4 PriceProv5 PriceProv6) 2520)
)
(:added-eqs                   16286251
 :arith-eq-adapter            6761
 :arith-bound-propagations-lp 56436
 :arith-conflicts             304
 :arith-diseq                 7336389
 :arith-fixed-eqs             513758
 :arith-lower                 16587268
 :arith-make-feasible         1600642
 :arith-max-columns           120
 :arith-max-rows              20
 :arith-upper                 14211840
 :binary-propagations         81463238
 :conflicts                   1418406
 :decisions                   1917419
 :del-clause                  1482797
 :final-checks                17
 :max-memory                  148.24
 :memory                      139.40
 :minimized-lits              182097661
 :mk-bool-var                 14089
 :mk-clause                   1483841
 :mk-clause-binary            3176
 :num-allocs                  105630063726.00
 :num-checks                  18
 :pb-conflicts                56910
 :pb-predicates               346
 :pb-propagations             10975571
 :pb-resolves                 56681
 :propagations                130400843
 :restarts                    2213
 :rlimit-count                582459838
 :solve-eqs-elim-vars         1
 :solve-eqs-steps             10
 :time                        54.91
 :total-time                  54.80)
